StringID     Type         x            y            demand       ReadyTime    DueDate      ServiceTime  PartnerID    
D0           d            40.0         50.0         0.0          0.0          960.0        0.0          0            
S0           f            40.0         50.0         0.0          0.0          960.0        0.0          0            
S7           f            21.0         83.0         0.0          0.0          960.0        0.0          0            
S9           f            14.0         59.0         0.0          0.0          960.0        0.0          0            
S11          f            10.0         28.0         0.0          0.0          960.0        0.0          0            
S13          f            22.0         34.0         0.0          0.0          960.0        0.0          0            
S14          f            27.0         10.0         0.0          0.0          960.0        0.0          0            
S17          f            61.0         14.0         0.0          0.0          960.0        0.0          0            
C1           cd           25.0         85.0         -50.0        300.0        420.0        10.0         C10          
C2           cd           22.0         75.0         -30.0        0.0          919.0        10.0         C99          
C10          cp           10.0         40.0         50.0         0.0          918.0        10.0         C1           
C20          cd           42.0         15.0         -40.0        208.0        328.0        10.0         C79          
C22          cd           40.0         15.0         -56.0        0.0          915.0        10.0         C75          
C48          cp           42.0         5.0          19.0         0.0          904.0        10.0         C61          
C49          cd           42.0         12.0         -18.0        0.0          911.0        10.0         C74          
C61          cd           45.0         65.0         -19.0        618.0        738.0        10.0         C48          
C63          cd           65.0         20.0         -34.0        0.0          910.0        10.0         C86          
C74          cp           20.0         20.0         18.0         0.0          913.0        10.0         C49          
C75          cp           5.0          5.0          56.0         0.0          879.0        10.0         C22          
C76          cd           60.0         12.0         -40.0        0.0          907.0        10.0         C98          
C79          cp           6.0          68.0         40.0         39.0         159.0        10.0         C20          
C86          cp           21.0         24.0         34.0         0.0          917.0        10.0         C63          
C98          cp           26.0         52.0         40.0         0.0          935.0        10.0         C76          
C99          cp           22.0         75.0         30.0         0.0          919.0        0.0          C2           

Vehicle battery capacity : 77.75
Vehicle freight capacity : 1000.0
battery consumption rate : 1.0
inverse recharging rate : 0.39
average velocity : 1.0
